n_res = 4;
rcap = [12, 13, 93, 85];
rtype = [1, 1, 2, 2];
n_tasks = 16;
modes = [ {1, 2, 3}, {4, 5, 6}, {7, 8, 9}, {10, 11, 12}, {13, 14, 15}, {16, 17, 18}, {19, 20, 21}, {22, 23, 24}, {25, 26, 27}, {28, 29, 30}, {31, 32, 33}, {34, 35, 36}, {37, 38, 39}, {40, 41, 42}, {43, 44, 45}, {46, 47, 48} ];
succ = [ {6, 10}, {4, 12}, {5, 16}, {7, 9}, {8, 9}, {12}, {13, 15, 16}, {11}, {14, 15}, {16}, {12}, {13}, {14}, {}, {}, {} ];
n_opt = 48;
dur = [2, 4, 5, 2, 6, 8, 2, 4, 8, 4, 4, 10, 7, 10, 10, 1, 1, 7, 3, 5, 7, 1, 4, 10, 2, 4, 10, 5, 6, 7, 4, 5, 7, 1, 3, 8, 1, 1, 10, 1, 3, 4, 3, 8, 8, 5, 5, 7];
rreq = [|  8,  6,  3,  2,  2,  1,  6,  5,  5,  4,  5,  3,  3,  2,  1,  3,  4,  2,  3,  2,  1,  9,  8,  6,  9,  7,  6,  4,  3,  3,  8,  8,  6,  9,  4,  4,  6,  6,  6,  9,  9,  8,  7,  4,  6,  7,  6,  6
        |  6,  4,  3,  5,  4,  3, 10,  9,  9,  9,  9,  7,  6,  6,  6,  7,  7,  5,  7,  7,  6,  9,  5,  2,  9,  9,  7,  4,  3,  3,  7,  5,  4,  9,  7,  4,  5,  6,  2,  8,  7,  7,  6,  6,  5,  6,  5,  4
        |  7,  6,  6,  6,  4,  2,  9,  5,  5,  4,  4,  1,  9,  8,  9, 10,  8,  7,  7,  5,  1,  9,  6,  5,  8,  5,  2,  4,  3,  3, 10,  9,  7,  7,  6,  4,  7,  5,  3,  7,  6,  4,  6,  2,  6,  8,  8,  7
        |  3,  3,  3,  3,  2,  1,  6,  4,  1,  6,  5,  4,  9,  9,  9,  4,  4,  3,  5,  4,  4,  5,  5,  3, 10,  8,  5,  7,  3,  1,  7,  7,  7,  5,  4,  2,  9,  9,  9,  7,  5,  5,  7,  7,  7,  7,  9,  3 |];
